[VALIDATOR STDOUT]
Checking plan: /home/jfan5/Safety-gen/runs/benchmark/optic/ferry_20260201_171235/ferry/optic_results/ferry-l50-c26-s50001.plan
Plan executed successfully - checking goal
Plan valid
Final value: 126 

Successful plans:
Value: 126
 /home/jfan5/Safety-gen/runs/benchmark/optic/ferry_20260201_171235/ferry/optic_results/ferry-l50-c26-s50001.plan 126
